NAME : netgen22-5_29
COMMENT : Generated using the function generateClusteredNetwork from the R-package netgen (Bossek,2015) - Number of clusters: 5
TYPE : TSP
DIMENSION : 22
EDGE_WEIGHT_TYPE : EUC_2D
NODE_COORD_SECTION
1 41.5001335757 73.5313152426
2 37.7964218136 72.7893968831
3 29.5994731778 79.6340343883
4 43.3247050776 80.0138740594
5 40.7869089308 79.9428445713
6 40.5337538965 77.9101267093
7 86.0050852972 46.4564973597
8 72.7043046034 51.1439103064
9 84.6017091596 56.1272415491
10 75.9259749377 62.1356026484
11 82.1940203576 0.8035060072
12 81.2048877341 2.416816917
13 77.7321156075 0.612042936
14 91.9193288448 8.4089955814
15 46.7468789171 86.6679105344
16 46.1872821762 83.8911622815
17 48.0275539346 86.2519083725
18 44.113102289 83.502969343
19 21.4076893782 29.1557108691
20 1.3793218366 20.1656229681
21 24.0084063409 17.7341420033
22 17.6305284015 24.1184012506
EOF
